p min 35 67
n 1 3
n 32 -3
a 1 2 0 1 0
a 1 11 0 1 0
a 1 18 0 1 0
a 2 3 0 3 0
a 2 22 0 3 -100
a 3 4 0 3 0
a 3 23 0 3 -100
a 3 34 0 1 0
a 4 5 0 3 0
a 4 24 0 3 -100
a 4 34 0 1 57809
a 5 6 0 3 0
a 5 25 0 3 -100
a 5 34 0 1 137513
a 6 7 0 3 0
a 6 26 0 3 -100
a 6 34 0 1 193035
a 7 8 0 3 0
a 7 27 0 3 -100
a 7 34 0 1 269583
a 8 9 0 3 0
a 8 28 0 3 -100
a 8 34 0 1 322906
a 9 10 0 3 0
a 9 29 0 3 -100
a 9 34 0 1 396422
a 10 31 0 3 -100
a 11 12 0 3 0
a 11 22 0 3 -100
a 12 13 0 3 0
a 12 23 0 3 -100
a 12 33 0 1 0
a 13 14 0 3 0
a 13 24 0 3 -100
a 13 33 0 1 53158
a 14 15 0 3 0
a 14 25 0 3 -100
a 14 33 0 1 128304
a 15 16 0 3 0
a 15 26 0 3 -100
a 15 33 0 1 179359
a 16 17 0 3 0
a 16 27 0 3 -100
a 16 33 0 1 251529
a 17 31 0 3 -100
a 18 19 0 3 0
a 18 22 0 3 -100
a 19 20 0 3 0
a 19 23 0 3 -100
a 19 35 0 1 0
a 20 21 0 3 0
a 20 24 0 3 -100
a 20 35 0 1 48083
a 21 30 0 3 -100
a 22 23 0 3 -100
a 23 24 0 3 -100
a 24 25 0 3 -100
a 25 26 0 3 -100
a 26 27 0 3 -100
a 27 28 0 3 -100
a 28 29 0 3 -100
a 29 30 0 3 -100
a 30 31 0 3 -100
a 31 32 0 3 -100
a 33 17 0 1 -299135
a 34 10 0 1 -398802
a 35 21 0 1 -99724
